p cnf 153 367
139 62 0
148 -5 0
-129 148 -4 0
4 -135 -140 -144 0
-4 135 0
-4 140 0
-4 144 0
5 -140 -7 0
5 -140 141 -6 0
-5 140 0
-5 -141 7 0
-5 6 7 0
6 129 136 0
-6 -129 0
-6 -136 0
7 -131 138 -142 -8 0
-7 8 0
-7 131 0
-7 142 0
-7 -138 0
8 129 130 0
-8 -129 0
-8 -130 0
147 -10 0
147 -12 -13 0
10 138 140 143 -11 0
-10 11 0
-10 -143 0
-10 -138 0
-10 -140 0
11 -129 -132 0
-11 129 0
-11 132 0
12 -131 134 0
-12 131 0
-12 -134 0
13 -138 139 141 145 0
-13 -145 0
-13 -141 0
-13 138 0
-13 -139 0
146 -21 0
146 -19 0
145 -17 0
145 -4 -16 0
16 -134 139 0
-16 134 0
-16 -139 0
17 -131 140 -18 0
-17 131 0
-17 -140 0
-17 18 0
18 -135 -139 -143 0
-18 135 0
-18 139 0
-18 143 0
19 -127 128 143 -20 0
-19 20 0
-19 -143 0
-19 127 0
-19 -128 0
20 131 142 0
-20 -131 0
-20 -142 0
21 -139 -141 144 -22 0
-21 22 0
-21 139 0
-21 141 0
-21 -144 0
22 127 135 0
-22 -127 0
-22 -135 0
-26 -27 0
-26 -28 -29 0
26 -141 -151 0
-26 141 0
-26 151 0
27 -127 137 -139 140 0
-27 139 0
-27 -140 0
-27 127 0
-27 -137 0
28 130 133 137 0
-28 -130 0
-28 -137 0
-28 -133 0
29 136 149 0
-29 -136 0
-29 -149 0
-129 134 -33 0
-129 -139 151 -32 0
32 -148 152 0
-32 148 0
-32 -152 0
33 138 141 144 -153 0
-33 153 0
-33 -144 0
-33 -138 0
-33 -141 0
139 141 -35 0
35 -129 137 -140 151 0
-35 140 0
-35 -151 0
-35 129 0
-35 -137 0
130 138 -37 0
37 139 -140 149 151 0
-37 140 0
-37 -151 0
-37 -139 0
-37 -149 0
127 -131 -41 0
-140 -146 152 -40 0
40 127 -128 -129 -132 0
-40 -127 0
-40 132 0
-40 129 0
-40 128 0
41 136 146 147 152 0
-41 -152 0
-41 -147 0
-41 -136 0
-41 -146 0
-47 -48 0
127 131 -44 0
44 -136 142 -151 152 0
-44 151 0
-44 -152 0
-44 136 0
-44 -142 0
-133 -137 -46 0
46 134 143 151 152 0
-46 -152 0
-46 -151 0
-46 -134 0
-46 -143 0
47 -131 141 0
-47 131 0
-47 -141 0
48 -129 -136 -150 153 0
-48 150 0
-48 -153 0
-48 129 0
-48 136 0
149 -151 153 -50 0
50 -130 133 0
-50 130 0
-50 -133 0
-127 130 -54 0
133 -146 -153 -53 0
53 128 144 0
-53 -128 0
-53 -144 0
54 139 140 -149 152 0
-54 -139 0
-54 -152 0
-54 149 0
-54 -140 0
-59 -60 -61 0
-131 134 -57 -58 0
57 -133 -137 0
-57 133 0
-57 137 0
58 135 -142 145 -153 0
-58 142 0
-58 -145 0
-58 -135 0
-58 153 0
59 132 144 149 152 0
-59 -152 0
-59 -149 0
-59 -132 0
-59 -144 0
60 128 129 0
-60 -128 0
-60 -129 0
61 -130 -134 0
-61 130 0
-61 134 0
62 63 66 0
62 47 63 0
62 -135 63 0
-62 -63 0
-62 135 -47 -66 0
63 -140 -64 0
63 -140 141 65 0
-63 140 0
-63 -141 64 0
-63 64 -65 0
64 -128 -131 -142 -144 0
-64 144 0
-64 128 0
-64 142 0
-64 131 0
65 -135 53 0
65 -136 53 0
65 -145 53 0
-65 -53 0
-65 135 136 145 0
66 -144 -147 0
-66 144 0
-66 147 0
-140 -71 -74 0
71 -129 -139 0
-71 129 0
-71 139 0
139 147 150 -73 0
73 -128 129 138 140 0
-73 -140 0
-73 -138 0
-73 128 0
-73 -129 0
74 -141 -150 0
-74 141 0
-74 150 0
-144 -149 -150 -76 0
76 130 138 -60 0
-76 60 0
-76 -138 0
-76 -130 0
-130 139 149 -78 0
78 129 136 -141 -150 0
-78 -129 0
-78 150 0
-78 141 0
-78 -136 0
-61 -87 0
130 131 -84 0
-135 149 -82 -83 0
82 -142 -144 0
-82 142 0
-82 144 0
83 -130 131 0
-83 130 0
-83 -131 0
84 -135 145 -147 -149 0
-84 149 0
-84 135 0
-84 147 0
-84 -145 0
-148 149 -86 0
86 128 -130 -139 -140 0
-86 -128 0
-86 140 0
-86 139 0
-86 130 0
87 -129 -141 148 149 0
-87 141 0
-87 -149 0
-87 129 0
-87 -148 0
-29 -91 0
-131 -137 153 -90 0
90 -129 139 148 152 0
-90 -152 0
-90 -148 0
-90 129 0
-90 -139 0
91 130 135 152 153 0
-91 -153 0
-91 -152 0
-91 -130 0
-91 -135 0
153 -66 -83 0
140 147 153 -94 0
94 131 133 -138 -139 0
-94 -131 0
-94 139 0
-94 138 0
-94 -133 0
-53 -96 0
-97 -98 0
96 134 -138 -145 -152 0
-96 -134 0
-96 152 0
-96 145 0
-96 138 0
97 138 -145 -147 -152 0
-97 -138 0
-97 152 0
-97 147 0
-97 145 0
98 -127 129 -134 135 0
-98 134 0
-98 -135 0
-98 127 0
-98 -129 0
-60 -100 0
-83 -101 0
100 130 146 -149 153 0
-100 -130 0
-100 -153 0
-100 149 0
-100 -146 0
101 -135 144 -148 153 0
-101 148 0
-101 -153 0
-101 135 0
-101 -144 0
-131 -18 -61 -103 0
103 -148 -152 0
-103 148 0
-103 152 0
-129 131 105 0
105 103 106 0
105 -142 106 0
105 134 106 0
-105 -106 0
-105 -134 142 -103 0
106 138 -144 147 -152 0
-106 144 0
-106 -147 0
-106 -138 0
-106 152 0
140 151 -152 -108 0
108 -132 -137 -22 -109 0
-108 109 0
-108 132 0
-108 22 0
-108 137 0
109 -128 129 0
-109 128 0
-109 -129 0
-86 -117 0
-16 -20 -113 0
113 148 152 0
-113 -148 0
-113 -152 0
132 133 -8 -115 0
115 -134 -143 148 -152 0
-115 152 0
-115 134 0
-115 143 0
-115 -148 0
139 144 -32 -60 0
117 135 -136 -149 -152 0
-117 -135 0
-117 152 0
-117 149 0
-117 136 0
146 151 -152 -119 0
119 127 128 -129 139 0
-119 -127 0
-119 -139 0
-119 129 0
-119 -128 0
-135 -136 151 -121 0
121 -130 133 -148 -152 0
-121 152 0
-121 130 0
-121 148 0
-121 -133 0
130 132 -126 0
130 135 -124 -125 0
124 139 141 0
-124 -139 0
-124 -141 0
125 -129 -136 -144 -148 0
-125 148 0
-125 129 0
-125 144 0
-125 136 0
126 -133 143 144 -149 0
-126 149 0
-126 -144 0
-126 133 0
-126 -143 0
